Cd In2 S4                               
   1.00000000000000     
    11.0223536916709719    0.0000000000000000    0.0000000000000000
     0.0000000000000000   11.0223536916709719    0.0000000000000000
     0.0000000000000000    0.0000000000000000   11.0223536916709719
   Cd   In   S 
     8    15    31
Direct
  0.0039145510527189  0.0008500467669838  0.0047645143261968
 -0.0026377298778649  0.5100461668897688  0.4941547925146648
  0.5347623696209972  0.5435029383735528  0.0374244922176316
  0.4961843219341777  0.0079971577826768  0.4986816905559476
  0.7404806169487245  0.2476139224314179  0.7404762605219048
  0.2505369487546729  0.2417858243453379  0.2484645354628059
  0.2457342357267553  0.7414815971605991  0.7487307241356124
  0.7555694364860435  0.7467627059919750  0.2593383760336635
  0.6189323437681157  0.6295875343439542  0.6097459980082115
  0.3791377839896917  0.8680730806852017  0.1396410521163091
  0.8754605923328397  0.1248340467970617  0.3755784173016130
  0.0929118163643442  0.3730623349793971  0.8701202260259957
  0.8761485053612140  0.3755660229901204  0.1295708973270991
  0.3735242006764444  0.0925996080861943  0.8720576413321448
  0.1329388660848491  0.8674060743698143  0.3790825217553822
  0.6247328757842299  0.1190306820967527  0.1255792139244687
  0.3672528943085452  0.3837854028604730  0.5852404677784174
  0.8757305448782025  0.6299923215055681  0.8757971829326230
  0.8747708404960617  0.8750226153874452  0.6240198498344582
  0.1265527449502036  0.6209344439689517  0.1333387639746664
  0.6226725062258747  0.3811288035485169  0.3697875201120844
  0.6287813759042558  0.8733378297149526  0.8743340350441723
  0.1264830138701170  0.1262171441780338  0.6234191035017234
  0.3845519182261275  0.3860827341240795  0.3619154053261547
  0.6105615399188641  0.1146353543023637  0.8834628049085319
  0.1165478160794230  0.8862361710680200  0.6200676155258811
  0.8857019617526211  0.6143235174262961  0.1150031530077868
  0.1396173951386026  0.6326658382410886  0.3669116837500231
  0.8692579694359795  0.8696772293691882  0.8654438218017112
  0.6372520948533116  0.3634497316762416  0.1308022300599331
  0.3668901434157232  0.1481172684108701  0.6427703696418097
  0.6360661908760731  0.1378015631961553  0.3638815785422523
  0.1343295723948902  0.3682974972179524  0.6374972580194728
  0.3628866214167056  0.6350161303740478  0.1410756810120321
  0.1135253879138227  0.6083701834520506  0.8876753306985961
  0.6195505444905469  0.8811321603337695  0.1155771274746177
  0.8858992605606097  0.1157795266240410  0.6162855012214000
  0.3858898908138907  0.8673526660428376  0.8883743333532641
  0.6118436330174079  0.6161835451357728  0.3782205245768266
  0.1163321800867636  0.3795257618437972  0.1080856411028932
  0.1405591316068009  0.1406687486623050  0.8665976404029855
  0.8661046104007739  0.3646203920872186  0.3669234515495034
  0.6333685330428017  0.8693686640308607  0.6342533212557467
  0.6401417056217804  0.6365413925603168  0.8612770402404735
  0.1359071810437993  0.8641131140466464  0.1358238232927344
  0.1148332946986790  0.1135608262364678  0.3858935060867635
  0.6090209638429401  0.3857178669085593  0.6105402297286685
  0.8667847027484349  0.3842756635522946  0.8842890370578408
  0.3873741014153722  0.6051156312150919  0.6354707821975856
  0.3669075294683908  0.8707976772358788  0.3721008289762370
  0.8645830167433225  0.1353957373418955  0.1348025573952788
  0.8618483566150723  0.6360939645175119  0.6356931940047738
  0.3854195667163628  0.1122600128273087  0.1076815277472629
  0.8897151657271433  0.8860527603923646  0.3861023888180908
 
  0.00000000E+00  0.00000000E+00  0.00000000E+00
  0.00000000E+00  0.00000000E+00  0.00000000E+00
  0.00000000E+00  0.00000000E+00  0.00000000E+00
  0.00000000E+00  0.00000000E+00  0.00000000E+00
  0.00000000E+00  0.00000000E+00  0.00000000E+00
  0.00000000E+00  0.00000000E+00  0.00000000E+00
  0.00000000E+00  0.00000000E+00  0.00000000E+00
  0.00000000E+00  0.00000000E+00  0.00000000E+00
  0.00000000E+00  0.00000000E+00  0.00000000E+00
  0.00000000E+00  0.00000000E+00  0.00000000E+00
  0.00000000E+00  0.00000000E+00  0.00000000E+00
  0.00000000E+00  0.00000000E+00  0.00000000E+00
  0.00000000E+00  0.00000000E+00  0.00000000E+00
  0.00000000E+00  0.00000000E+00  0.00000000E+00
  0.00000000E+00  0.00000000E+00  0.00000000E+00
  0.00000000E+00  0.00000000E+00  0.00000000E+00
  0.00000000E+00  0.00000000E+00  0.00000000E+00
  0.00000000E+00  0.00000000E+00  0.00000000E+00
  0.00000000E+00  0.00000000E+00  0.00000000E+00
  0.00000000E+00  0.00000000E+00  0.00000000E+00
  0.00000000E+00  0.00000000E+00  0.00000000E+00
  0.00000000E+00  0.00000000E+00  0.00000000E+00
  0.00000000E+00  0.00000000E+00  0.00000000E+00
  0.00000000E+00  0.00000000E+00  0.00000000E+00
  0.00000000E+00  0.00000000E+00  0.00000000E+00
  0.00000000E+00  0.00000000E+00  0.00000000E+00
  0.00000000E+00  0.00000000E+00  0.00000000E+00
  0.00000000E+00  0.00000000E+00  0.00000000E+00
  0.00000000E+00  0.00000000E+00  0.00000000E+00
  0.00000000E+00  0.00000000E+00  0.00000000E+00
  0.00000000E+00  0.00000000E+00  0.00000000E+00
  0.00000000E+00  0.00000000E+00  0.00000000E+00
  0.00000000E+00  0.00000000E+00  0.00000000E+00
  0.00000000E+00  0.00000000E+00  0.00000000E+00
  0.00000000E+00  0.00000000E+00  0.00000000E+00
  0.00000000E+00  0.00000000E+00  0.00000000E+00
  0.00000000E+00  0.00000000E+00  0.00000000E+00
  0.00000000E+00  0.00000000E+00  0.00000000E+00
  0.00000000E+00  0.00000000E+00  0.00000000E+00
  0.00000000E+00  0.00000000E+00  0.00000000E+00
  0.00000000E+00  0.00000000E+00  0.00000000E+00
  0.00000000E+00  0.00000000E+00  0.00000000E+00
  0.00000000E+00  0.00000000E+00  0.00000000E+00
  0.00000000E+00  0.00000000E+00  0.00000000E+00
  0.00000000E+00  0.00000000E+00  0.00000000E+00
  0.00000000E+00  0.00000000E+00  0.00000000E+00
  0.00000000E+00  0.00000000E+00  0.00000000E+00
  0.00000000E+00  0.00000000E+00  0.00000000E+00
  0.00000000E+00  0.00000000E+00  0.00000000E+00
  0.00000000E+00  0.00000000E+00  0.00000000E+00
  0.00000000E+00  0.00000000E+00  0.00000000E+00
  0.00000000E+00  0.00000000E+00  0.00000000E+00
  0.00000000E+00  0.00000000E+00  0.00000000E+00
  0.00000000E+00  0.00000000E+00  0.00000000E+00
